p cnf 361 1
361 0
w 1 0.75524
w 2 1 0
w 2 -1 1
w 3 2 0
w 3 -2 1
w 4 3 0
w 4 -3 1
w 5 4 0.584374
w 5 -4 0.8544
w 6 5 0
w 6 -5 1
w 7 6 0
w 7 -6 1
w 8 7 0
w 8 -7 1
w 9 8 1
w 9 -8 0
w 10 9 0
w 10 -9 1
w 11 10 0
w 11 -10 1
w 12 11 0
w 12 -11 1
w 13 12 1
w 13 -12 0
w 14 13 1
w 14 -13 0
w 15 14 0.540014
w 15 -14 0.448794
w 16 15 1
w 16 -15 0
w 17 16 0
w 17 -16 1
w 18 17 0
w 18 -17 1
w 19 18 0
w 19 -18 1
w 20 1 0.55743
w 20 -1 0.117062
w 21 20 2 1
w 21 20 -2 1
w 21 -20 2 0
w 21 -20 -2 1
w 22 21 3 0
w 22 21 -3 1
w 22 -21 3 0
w 22 -21 -3 0
w 23 22 4 0
w 23 22 -4 0
w 23 -22 4 0
w 23 -22 -4 1
w 24 23 5 1
w 24 23 -5 1
w 24 -23 5 1
w 24 -23 -5 0
w 25 24 6 0
w 25 24 -6 1
w 25 -24 6 1
w 25 -24 -6 1
w 26 25 7 0.140783
w 26 25 -7 0.379563
w 26 -25 7 0.938622
w 26 -25 -7 0.698213
w 27 26 8 0
w 27 26 -8 1
w 27 -26 8 1
w 27 -26 -8 0
w 28 27 9 1
w 28 27 -9 0
w 28 -27 9 1
w 28 -27 -9 0
w 29 28 10 0.873528
w 29 28 -10 0.835102
w 29 -28 10 0.27958
w 29 -28 -10 0.718811
w 30 29 11 1
w 30 29 -11 0
w 30 -29 11 1
w 30 -29 -11 1
w 31 30 12 0
w 31 30 -12 1
w 31 -30 12 0
w 31 -30 -12 1
w 32 31 13 0
w 32 31 -13 1
w 32 -31 13 1
w 32 -31 -13 1
w 33 32 14 0.306546
w 33 32 -14 0.209264
w 33 -32 14 0.323249
w 33 -32 -14 0.493514
w 34 33 15 1
w 34 33 -15 1
w 34 -33 15 0
w 34 -33 -15 0
w 35 34 16 1
w 35 34 -16 1
w 35 -34 16 0
w 35 -34 -16 1
w 36 35 17 1
w 36 35 -17 1
w 36 -35 17 0
w 36 -35 -17 0
w 37 36 18 0.521907
w 37 36 -18 0.153741
w 37 -36 18 0.842173
w 37 -36 -18 0.646746
w 38 37 19 1
w 38 37 -19 1
w 38 -37 19 1
w 38 -37 -19 0
w 39 20 0.700566
w 39 -20 0.929562
w 40 39 21 1
w 40 39 -21 0
w 40 -39 21 0
w 40 -39 -21 0
w 41 40 22 0.0465947
w 41 40 -22 0.398302
w 41 -40 22 0.344859
w 41 -40 -22 0.0713821
w 42 41 23 1
w 42 41 -23 1
w 42 -41 23 0
w 42 -41 -23 0
w 43 42 24 1
w 43 42 -24 0
w 43 -42 24 0
w 43 -42 -24 1
w 44 43 25 0
w 44 43 -25 1
w 44 -43 25 0
w 44 -43 -25 1
w 45 44 26 1
w 45 44 -26 0
w 45 -44 26 0
w 45 -44 -26 1
w 46 45 27 1
w 46 45 -27 1
w 46 -45 27 0
w 46 -45 -27 0
w 47 46 28 0
w 47 46 -28 1
w 47 -46 28 1
w 47 -46 -28 0
w 48 47 29 0
w 48 47 -29 1
w 48 -47 29 0
w 48 -47 -29 0
w 49 48 30 0
w 49 48 -30 1
w 49 -48 30 1
w 49 -48 -30 0
w 50 49 31 0
w 50 49 -31 1
w 50 -49 31 0
w 50 -49 -31 0
w 51 50 32 1
w 51 50 -32 0
w 51 -50 32 0
w 51 -50 -32 1
w 52 51 33 0
w 52 51 -33 1
w 52 -51 33 0
w 52 -51 -33 0
w 53 52 34 0
w 53 52 -34 1
w 53 -52 34 0
w 53 -52 -34 1
w 54 53 35 0.907592
w 54 53 -35 0.822882
w 54 -53 35 0.693578
w 54 -53 -35 0.398356
w 55 54 36 0.91372
w 55 54 -36 0.246837
w 55 -54 36 0.627329
w 55 -54 -36 0.555694
w 56 55 37 0
w 56 55 -37 0
w 56 -55 37 0
w 56 -55 -37 1
w 57 56 38 0
w 57 56 -38 1
w 57 -56 38 1
w 57 -56 -38 1
w 58 39 1
w 58 -39 0
w 59 58 40 1
w 59 58 -40 0
w 59 -58 40 1
w 59 -58 -40 1
w 60 59 41 1
w 60 59 -41 0
w 60 -59 41 0
w 60 -59 -41 1
w 61 60 42 0
w 61 60 -42 1
w 61 -60 42 0
w 61 -60 -42 1
w 62 61 43 1
w 62 61 -43 1
w 62 -61 43 0
w 62 -61 -43 1
w 63 62 44 0.296435
w 63 62 -44 0.934462
w 63 -62 44 0.0371688
w 63 -62 -44 0.799463
w 64 63 45 1
w 64 63 -45 0
w 64 -63 45 1
w 64 -63 -45 0
w 65 64 46 0
w 65 64 -46 1
w 65 -64 46 1
w 65 -64 -46 1
w 66 65 47 0
w 66 65 -47 1
w 66 -65 47 0
w 66 -65 -47 0
w 67 66 48 1
w 67 66 -48 0
w 67 -66 48 1
w 67 -66 -48 1
w 68 67 49 0
w 68 67 -49 1
w 68 -67 49 0
w 68 -67 -49 1
w 69 68 50 0.573572
w 69 68 -50 0.0456945
w 69 -68 50 0.85462
w 69 -68 -50 0.610741
w 70 69 51 0.400634
w 70 69 -51 0.729276
w 70 -69 51 0.781665
w 70 -69 -51 0.965327
w 71 70 52 0
w 71 70 -52 0
w 71 -70 52 1
w 71 -70 -52 1
w 72 71 53 0.874438
w 72 71 -53 0.72334
w 72 -71 53 0.3031
w 72 -71 -53 0.883876
w 73 72 54 0
w 73 72 -54 0
w 73 -72 54 1
w 73 -72 -54 1
w 74 73 55 0.683905
w 74 73 -55 0.82395
w 74 -73 55 0.60006
w 74 -73 -55 0.370766
w 75 74 56 1
w 75 74 -56 1
w 75 -74 56 0
w 75 -74 -56 1
w 76 75 57 1
w 76 75 -57 0
w 76 -75 57 1
w 76 -75 -57 1
w 77 58 1
w 77 -58 0
w 78 77 59 0
w 78 77 -59 0
w 78 -77 59 1
w 78 -77 -59 1
w 79 78 60 1
w 79 78 -60 0
w 79 -78 60 0
w 79 -78 -60 1
w 80 79 61 0
w 80 79 -61 0
w 80 -79 61 0
w 80 -79 -61 1
w 81 80 62 0.354065
w 81 80 -62 0.553318
w 81 -80 62 0.419641
w 81 -80 -62 0.874283
w 82 81 63 1
w 82 81 -63 1
w 82 -81 63 0
w 82 -81 -63 0
w 83 82 64 0
w 83 82 -64 0
w 83 -82 64 1
w 83 -82 -64 1
w 84 83 65 1
w 84 83 -65 0
w 84 -83 65 0
w 84 -83 -65 0
w 85 84 66 1
w 85 84 -66 0
w 85 -84 66 0
w 85 -84 -66 1
w 86 85 67 0
w 86 85 -67 1
w 86 -85 67 1
w 86 -85 -67 0
w 87 86 68 0.112073
w 87 86 -68 0.67811
w 87 -86 68 0.501745
w 87 -86 -68 0.531714
w 88 87 69 1
w 88 87 -69 1
w 88 -87 69 1
w 88 -87 -69 0
w 89 88 70 0
w 89 88 -70 0
w 89 -88 70 0
w 89 -88 -70 1
w 90 89 71 1
w 90 89 -71 0
w 90 -89 71 1
w 90 -89 -71 0
w 91 90 72 0
w 91 90 -72 1
w 91 -90 72 1
w 91 -90 -72 1
w 92 91 73 1
w 92 91 -73 0
w 92 -91 73 1
w 92 -91 -73 0
w 93 92 74 0
w 93 92 -74 1
w 93 -92 74 1
w 93 -92 -74 0
w 94 93 75 0.784804
w 94 93 -75 0.0290507
w 94 -93 75 0.554499
w 94 -93 -75 0.836941
w 95 94 76 1
w 95 94 -76 0
w 95 -94 76 0
w 95 -94 -76 1
w 96 77 1
w 96 -77 0
w 97 96 78 1
w 97 96 -78 1
w 97 -96 78 0
w 97 -96 -78 0
w 98 97 79 0
w 98 97 -79 1
w 98 -97 79 1
w 98 -97 -79 0
w 99 98 80 1
w 99 98 -80 0
w 99 -98 80 1
w 99 -98 -80 0
w 100 99 81 0
w 100 99 -81 1
w 100 -99 81 1
w 100 -99 -81 1
w 101 100 82 1
w 101 100 -82 0
w 101 -100 82 0
w 101 -100 -82 1
w 102 101 83 0
w 102 101 -83 1
w 102 -101 83 1
w 102 -101 -83 0
w 103 102 84 0
w 103 102 -84 0
w 103 -102 84 0
w 103 -102 -84 1
w 104 103 85 1
w 104 103 -85 1
w 104 -103 85 0
w 104 -103 -85 0
w 105 104 86 1
w 105 104 -86 0
w 105 -104 86 1
w 105 -104 -86 0
w 106 105 87 0
w 106 105 -87 0
w 106 -105 87 1
w 106 -105 -87 1
w 107 106 88 0
w 107 106 -88 0
w 107 -106 88 0
w 107 -106 -88 1
w 108 107 89 1
w 108 107 -89 0
w 108 -107 89 1
w 108 -107 -89 1
w 109 108 90 1
w 109 108 -90 1
w 109 -108 90 0
w 109 -108 -90 0
w 110 109 91 1
w 110 109 -91 1
w 110 -109 91 0
w 110 -109 -91 0
w 111 110 92 1
w 111 110 -92 0
w 111 -110 92 0
w 111 -110 -92 1
w 112 111 93 0
w 112 111 -93 1
w 112 -111 93 1
w 112 -111 -93 1
w 113 112 94 1
w 113 112 -94 1
w 113 -112 94 0
w 113 -112 -94 0
w 114 113 95 0
w 114 113 -95 1
w 114 -113 95 0
w 114 -113 -95 1
w 115 96 0.284406
w 115 -96 0.780659
w 116 115 97 0.473555
w 116 115 -97 0.714097
w 116 -115 97 0.35573
w 116 -115 -97 0.0768342
w 117 116 98 0
w 117 116 -98 1
w 117 -116 98 0
w 117 -116 -98 1
w 118 117 99 0
w 118 117 -99 0
w 118 -117 99 1
w 118 -117 -99 1
w 119 118 100 0
w 119 118 -100 0
w 119 -118 100 1
w 119 -118 -100 1
w 120 119 101 0
w 120 119 -101 1
w 120 -119 101 0
w 120 -119 -101 0
w 121 120 102 1
w 121 120 -102 0
w 121 -120 102 1
w 121 -120 -102 0
w 122 121 103 1
w 122 121 -103 1
w 122 -121 103 0
w 122 -121 -103 1
w 123 122 104 0
w 123 122 -104 1
w 123 -122 104 1
w 123 -122 -104 1
w 124 123 105 0
w 124 123 -105 0
w 124 -123 105 1
w 124 -123 -105 1
w 125 124 106 1
w 125 124 -106 1
w 125 -124 106 0
w 125 -124 -106 1
w 126 125 107 0
w 126 125 -107 0
w 126 -125 107 0
w 126 -125 -107 1
w 127 126 108 1
w 127 126 -108 1
w 127 -126 108 0
w 127 -126 -108 1
w 128 127 109 0.917259
w 128 127 -109 0.113921
w 128 -127 109 0.836398
w 128 -127 -109 0.375451
w 129 128 110 0
w 129 128 -110 1
w 129 -128 110 0
w 129 -128 -110 1
w 130 129 111 1
w 130 129 -111 1
w 130 -129 111 1
w 130 -129 -111 0
w 131 130 112 0
w 131 130 -112 1
w 131 -130 112 0
w 131 -130 -112 0
w 132 131 113 0.31574
w 132 131 -113 0.262924
w 132 -131 113 0.210515
w 132 -131 -113 0.651132
w 133 132 114 0.779395
w 133 132 -114 0.395055
w 133 -132 114 0.652095
w 133 -132 -114 0.884018
w 134 115 1
w 134 -115 0
w 135 134 116 0.164565
w 135 134 -116 0.944805
w 135 -134 116 0.197993
w 135 -134 -116 0.38096
w 136 135 117 1
w 136 135 -117 1
w 136 -135 117 1
w 136 -135 -117 0
w 137 136 118 0
w 137 136 -118 1
w 137 -136 118 1
w 137 -136 -118 0
w 138 137 119 1
w 138 137 -119 1
w 138 -137 119 0
w 138 -137 -119 0
w 139 138 120 0.741222
w 139 138 -120 0.912304
w 139 -138 120 0.486434
w 139 -138 -120 0.578521
w 140 139 121 1
w 140 139 -121 0
w 140 -139 121 0
w 140 -139 -121 0
w 141 140 122 0.573657
w 141 140 -122 0.374221
w 141 -140 122 0.744774
w 141 -140 -122 0.771649
w 142 141 123 0.420474
w 142 141 -123 0.404855
w 142 -141 123 0.531203
w 142 -141 -123 0.371528
w 143 142 124 0.106107
w 143 142 -124 0.598301
w 143 -142 124 0.781996
w 143 -142 -124 0.112117
w 144 143 125 1
w 144 143 -125 0
w 144 -143 125 1
w 144 -143 -125 1
w 145 144 126 1
w 145 144 -126 0
w 145 -144 126 1
w 145 -144 -126 1
w 146 145 127 1
w 146 145 -127 0
w 146 -145 127 1
w 146 -145 -127 1
w 147 146 128 1
w 147 146 -128 1
w 147 -146 128 0
w 147 -146 -128 0
w 148 147 129 1
w 148 147 -129 0
w 148 -147 129 1
w 148 -147 -129 1
w 149 148 130 0
w 149 148 -130 1
w 149 -148 130 0
w 149 -148 -130 0
w 150 149 131 0
w 150 149 -131 1
w 150 -149 131 1
w 150 -149 -131 0
w 151 150 132 0
w 151 150 -132 1
w 151 -150 132 0
w 151 -150 -132 1
w 152 151 133 0.593177
w 152 151 -133 0.341249
w 152 -151 133 0.768613
w 152 -151 -133 0.865368
w 153 134 0
w 153 -134 1
w 154 153 135 0.51979
w 154 153 -135 0.456864
w 154 -153 135 0.754462
w 154 -153 -135 0.667539
w 155 154 136 0
w 155 154 -136 1
w 155 -154 136 0
w 155 -154 -136 0
w 156 155 137 1
w 156 155 -137 0
w 156 -155 137 1
w 156 -155 -137 0
w 157 156 138 0
w 157 156 -138 0
w 157 -156 138 1
w 157 -156 -138 0
w 158 157 139 1
w 158 157 -139 0
w 158 -157 139 1
w 158 -157 -139 0
w 159 158 140 0
w 159 158 -140 0
w 159 -158 140 1
w 159 -158 -140 0
w 160 159 141 1
w 160 159 -141 0
w 160 -159 141 0
w 160 -159 -141 0
w 161 160 142 0.833774
w 161 160 -142 0.0636786
w 161 -160 142 0.447711
w 161 -160 -142 0.434578
w 162 161 143 1
w 162 161 -143 0
w 162 -161 143 0
w 162 -161 -143 1
w 163 162 144 0
w 163 162 -144 1
w 163 -162 144 1
w 163 -162 -144 1
w 164 163 145 0
w 164 163 -145 0
w 164 -163 145 0
w 164 -163 -145 1
w 165 164 146 0.626328
w 165 164 -146 0.326788
w 165 -164 146 0.509568
w 165 -164 -146 0.713772
w 166 165 147 0
w 166 165 -147 0
w 166 -165 147 0
w 166 -165 -147 1
w 167 166 148 1
w 167 166 -148 1
w 167 -166 148 1
w 167 -166 -148 0
w 168 167 149 0.0666456
w 168 167 -149 0.344515
w 168 -167 149 0.372765
w 168 -167 -149 0.54911
w 169 168 150 1
w 169 168 -150 0
w 169 -168 150 1
w 169 -168 -150 1
w 170 169 151 0
w 170 169 -151 1
w 170 -169 151 0
w 170 -169 -151 0
w 171 170 152 1
w 171 170 -152 1
w 171 -170 152 0
w 171 -170 -152 0
w 172 153 0
w 172 -153 1
w 173 172 154 0
w 173 172 -154 0
w 173 -172 154 0
w 173 -172 -154 1
w 174 173 155 1
w 174 173 -155 0
w 174 -173 155 0
w 174 -173 -155 1
w 175 174 156 1
w 175 174 -156 0
w 175 -174 156 0
w 175 -174 -156 1
w 176 175 157 0
w 176 175 -157 1
w 176 -175 157 0
w 176 -175 -157 1
w 177 176 158 1
w 177 176 -158 1
w 177 -176 158 0
w 177 -176 -158 1
w 178 177 159 0.987886
w 178 177 -159 0.454538
w 178 -177 159 0.980769
w 178 -177 -159 0.935715
w 179 178 160 1
w 179 178 -160 1
w 179 -178 160 1
w 179 -178 -160 0
w 180 179 161 0.214655
w 180 179 -161 0.8931
w 180 -179 161 0.673178
w 180 -179 -161 0.226371
w 181 180 162 0.756851
w 181 180 -162 0.610853
w 181 -180 162 0.542061
w 181 -180 -162 0.54577
w 182 181 163 0
w 182 181 -163 1
w 182 -181 163 0
w 182 -181 -163 1
w 183 182 164 0.699647
w 183 182 -164 0.293521
w 183 -182 164 0.199001
w 183 -182 -164 0.24249
w 184 183 165 0.965647
w 184 183 -165 0.230375
w 184 -183 165 0.291474
w 184 -183 -165 0.946417
w 185 184 166 0
w 185 184 -166 1
w 185 -184 166 0
w 185 -184 -166 1
w 186 185 167 1
w 186 185 -167 0
w 186 -185 167 0
w 186 -185 -167 1
w 187 186 168 0.442932
w 187 186 -168 0.760007
w 187 -186 168 0.485013
w 187 -186 -168 0.984993
w 188 187 169 1
w 188 187 -169 0
w 188 -187 169 0
w 188 -187 -169 1
w 189 188 170 0
w 189 188 -170 1
w 189 -188 170 0
w 189 -188 -170 0
w 190 189 171 0.943563
w 190 189 -171 0.230736
w 190 -189 171 0.14705
w 190 -189 -171 0.88998
w 191 172 0
w 191 -172 1
w 192 191 173 0
w 192 191 -173 0
w 192 -191 173 1
w 192 -191 -173 0
w 193 192 174 1
w 193 192 -174 1
w 193 -192 174 1
w 193 -192 -174 0
w 194 193 175 0.121602
w 194 193 -175 0.191703
w 194 -193 175 0.680544
w 194 -193 -175 0.695058
w 195 194 176 1
w 195 194 -176 0
w 195 -194 176 0
w 195 -194 -176 1
w 196 195 177 0
w 196 195 -177 1
w 196 -195 177 1
w 196 -195 -177 1
w 197 196 178 1
w 197 196 -178 0
w 197 -196 178 1
w 197 -196 -178 0
w 198 197 179 1
w 198 197 -179 0
w 198 -197 179 0
w 198 -197 -179 0
w 199 198 180 1
w 199 198 -180 1
w 199 -198 180 0
w 199 -198 -180 0
w 200 199 181 1
w 200 199 -181 1
w 200 -199 181 0
w 200 -199 -181 0
w 201 200 182 0
w 201 200 -182 1
w 201 -200 182 1
w 201 -200 -182 1
w 202 201 183 0.0500566
w 202 201 -183 0.209368
w 202 -201 183 0.631455
w 202 -201 -183 0.777793
w 203 202 184 1
w 203 202 -184 1
w 203 -202 184 0
w 203 -202 -184 0
w 204 203 185 0.338693
w 204 203 -185 0.884022
w 204 -203 185 0.859819
w 204 -203 -185 0.666051
w 205 204 186 0.0258502
w 205 204 -186 0.405776
w 205 -204 186 0.226041
w 205 -204 -186 0.0778079
w 206 205 187 0
w 206 205 -187 1
w 206 -205 187 1
w 206 -205 -187 1
w 207 206 188 0
w 207 206 -188 0
w 207 -206 188 1
w 207 -206 -188 1
w 208 207 189 1
w 208 207 -189 1
w 208 -207 189 1
w 208 -207 -189 0
w 209 208 190 0.894239
w 209 208 -190 0.48579
w 209 -208 190 0.700211
w 209 -208 -190 0.443783
w 210 191 0.519917
w 210 -191 0.782476
w 211 210 192 0.379736
w 211 210 -192 0.448527
w 211 -210 192 0.831536
w 211 -210 -192 0.405586
w 212 211 193 0.0575771
w 212 211 -193 0.483394
w 212 -211 193 0.897185
w 212 -211 -193 0.644535
w 213 212 194 0.257716
w 213 212 -194 0.287469
w 213 -212 194 0.407906
w 213 -212 -194 0.674664
w 214 213 195 1
w 214 213 -195 0
w 214 -213 195 1
w 214 -213 -195 0
w 215 214 196 0
w 215 214 -196 0
w 215 -214 196 1
w 215 -214 -196 0
w 216 215 197 1
w 216 215 -197 0
w 216 -215 197 1
w 216 -215 -197 0
w 217 216 198 0.221376
w 217 216 -198 0.0624484
w 217 -216 198 0.253066
w 217 -216 -198 0.052912
w 218 217 199 0
w 218 217 -199 0
w 218 -217 199 0
w 218 -217 -199 1
w 219 218 200 0.262269
w 219 218 -200 0.0424936
w 219 -218 200 0.164196
w 219 -218 -200 0.936933
w 220 219 201 1
w 220 219 -201 0
w 220 -219 201 1
w 220 -219 -201 1
w 221 220 202 0
w 221 220 -202 0
w 221 -220 202 1
w 221 -220 -202 0
w 222 221 203 1
w 222 221 -203 0
w 222 -221 203 0
w 222 -221 -203 0
w 223 222 204 0.616873
w 223 222 -204 0.231657
w 223 -222 204 0.974121
w 223 -222 -204 0.0849071
w 224 223 205 1
w 224 223 -205 0
w 224 -223 205 0
w 224 -223 -205 0
w 225 224 206 0.605849
w 225 224 -206 0.882128
w 225 -224 206 0.956822
w 225 -224 -206 0.542783
w 226 225 207 0
w 226 225 -207 0
w 226 -225 207 0
w 226 -225 -207 1
w 227 226 208 0
w 227 226 -208 1
w 227 -226 208 1
w 227 -226 -208 0
w 228 227 209 1
w 228 227 -209 0
w 228 -227 209 1
w 228 -227 -209 1
w 229 210 1
w 229 -210 0
w 230 229 211 0
w 230 229 -211 0
w 230 -229 211 1
w 230 -229 -211 1
w 231 230 212 1
w 231 230 -212 1
w 231 -230 212 0
w 231 -230 -212 1
w 232 231 213 0.993332
w 232 231 -213 0.162075
w 232 -231 213 0.171323
w 232 -231 -213 0.223701
w 233 232 214 0
w 233 232 -214 1
w 233 -232 214 0
w 233 -232 -214 0
w 234 233 215 1
w 234 233 -215 0
w 234 -233 215 0
w 234 -233 -215 1
w 235 234 216 1
w 235 234 -216 0
w 235 -234 216 0
w 235 -234 -216 1
w 236 235 217 1
w 236 235 -217 1
w 236 -235 217 1
w 236 -235 -217 0
w 237 236 218 1
w 237 236 -218 1
w 237 -236 218 1
w 237 -236 -218 0
w 238 237 219 0.133923
w 238 237 -219 0.797841
w 238 -237 219 0.148525
w 238 -237 -219 0.305246
w 239 238 220 0
w 239 238 -220 0
w 239 -238 220 1
w 239 -238 -220 0
w 240 239 221 1.04597e-05
w 240 239 -221 0.82897
w 240 -239 221 0.0173786
w 240 -239 -221 0.985526
w 241 240 222 0
w 241 240 -222 0
w 241 -240 222 1
w 241 -240 -222 1
w 242 241 223 1
w 242 241 -223 0
w 242 -241 223 0
w 242 -241 -223 1
w 243 242 224 0
w 243 242 -224 0
w 243 -242 224 1
w 243 -242 -224 1
w 244 243 225 1
w 244 243 -225 1
w 244 -243 225 0
w 244 -243 -225 0
w 245 244 226 0
w 245 244 -226 1
w 245 -244 226 0
w 245 -244 -226 1
w 246 245 227 1
w 246 245 -227 0
w 246 -245 227 1
w 246 -245 -227 1
w 247 246 228 0
w 247 246 -228 0
w 247 -246 228 0
w 247 -246 -228 1
w 248 229 0.775844
w 248 -229 0.381639
w 249 248 230 0
w 249 248 -230 1
w 249 -248 230 1
w 249 -248 -230 0
w 250 249 231 1
w 250 249 -231 0
w 250 -249 231 0
w 250 -249 -231 0
w 251 250 232 0
w 251 250 -232 0
w 251 -250 232 1
w 251 -250 -232 0
w 252 251 233 1
w 252 251 -233 1
w 252 -251 233 0
w 252 -251 -233 0
w 253 252 234 0.812953
w 253 252 -234 0.0990338
w 253 -252 234 0.199349
w 253 -252 -234 0.304696
w 254 253 235 0.272898
w 254 253 -235 0.0895284
w 254 -253 235 0.623108
w 254 -253 -235 0.654537
w 255 254 236 1
w 255 254 -236 0
w 255 -254 236 1
w 255 -254 -236 1
w 256 255 237 0.807897
w 256 255 -237 0.369515
w 256 -255 237 0.858231
w 256 -255 -237 0.363365
w 257 256 238 1
w 257 256 -238 0
w 257 -256 238 1
w 257 -256 -238 0
w 258 257 239 0.73432
w 258 257 -239 0.502501
w 258 -257 239 0.481186
w 258 -257 -239 0.165013
w 259 258 240 1
w 259 258 -240 1
w 259 -258 240 1
w 259 -258 -240 0
w 260 259 241 0
w 260 259 -241 0
w 260 -259 241 1
w 260 -259 -241 0
w 261 260 242 1
w 261 260 -242 1
w 261 -260 242 1
w 261 -260 -242 0
w 262 261 243 1
w 262 261 -243 0
w 262 -261 243 1
w 262 -261 -243 0
w 263 262 244 1
w 263 262 -244 1
w 263 -262 244 0
w 263 -262 -244 0
w 264 263 245 0.861892
w 264 263 -245 0.549741
w 264 -263 245 0.257837
w 264 -263 -245 0.343077
w 265 264 246 1
w 265 264 -246 0
w 265 -264 246 0
w 265 -264 -246 0
w 266 265 247 0
w 266 265 -247 0
w 266 -265 247 0
w 266 -265 -247 1
w 267 248 1
w 267 -248 0
w 268 267 249 0
w 268 267 -249 0
w 268 -267 249 1
w 268 -267 -249 1
w 269 268 250 0.479252
w 269 268 -250 0.94877
w 269 -268 250 0.633357
w 269 -268 -250 0.933894
w 270 269 251 0
w 270 269 -251 1
w 270 -269 251 0
w 270 -269 -251 0
w 271 270 252 1
w 271 270 -252 0
w 271 -270 252 0
w 271 -270 -252 0
w 272 271 253 1
w 272 271 -253 0
w 272 -271 253 0
w 272 -271 -253 0
w 273 272 254 0
w 273 272 -254 0
w 273 -272 254 1
w 273 -272 -254 0
w 274 273 255 1
w 274 273 -255 0
w 274 -273 255 1
w 274 -273 -255 1
w 275 274 256 0.149824
w 275 274 -256 0.0651396
w 275 -274 256 0.998991
w 275 -274 -256 0.577808
w 276 275 257 0.878242
w 276 275 -257 0.761128
w 276 -275 257 0.700123
w 276 -275 -257 0.307234
w 277 276 258 1
w 277 276 -258 0
w 277 -276 258 0
w 277 -276 -258 0
w 278 277 259 0
w 278 277 -259 0
w 278 -277 259 1
w 278 -277 -259 0
w 279 278 260 1
w 279 278 -260 0
w 279 -278 260 0
w 279 -278 -260 1
w 280 279 261 0.520298
w 280 279 -261 0.174739
w 280 -279 261 0.910778
w 280 -279 -261 0.0367659
w 281 280 262 0
w 281 280 -262 1
w 281 -280 262 1
w 281 -280 -262 1
w 282 281 263 0.322809
w 282 281 -263 0.723172
w 282 -281 263 0.525527
w 282 -281 -263 0.0229319
w 283 282 264 1
w 283 282 -264 0
w 283 -282 264 1
w 283 -282 -264 1
w 284 283 265 0.408
w 284 283 -265 0.400165
w 284 -283 265 0.868136
w 284 -283 -265 0.367703
w 285 284 266 0.126861
w 285 284 -266 0.202537
w 285 -284 266 0.859909
w 285 -284 -266 0.649606
w 286 267 1
w 286 -267 0
w 287 286 268 0.0377018
w 287 286 -268 0.416973
w 287 -286 268 0.130329
w 287 -286 -268 0.883641
w 288 287 269 1
w 288 287 -269 0
w 288 -287 269 0
w 288 -287 -269 1
w 289 288 270 1
w 289 288 -270 1
w 289 -288 270 0
w 289 -288 -270 1
w 290 289 271 0.814746
w 290 289 -271 0.933785
w 290 -289 271 0.732372
w 290 -289 -271 0.222747
w 291 290 272 0
w 291 290 -272 1
w 291 -290 272 1
w 291 -290 -272 1
w 292 291 273 0.101204
w 292 291 -273 0.376975
w 292 -291 273 0.919911
w 292 -291 -273 0.481411
w 293 292 274 0
w 293 292 -274 1
w 293 -292 274 0
w 293 -292 -274 1
w 294 293 275 1
w 294 293 -275 0
w 294 -293 275 0
w 294 -293 -275 1
w 295 294 276 0
w 295 294 -276 0
w 295 -294 276 1
w 295 -294 -276 1
w 296 295 277 1
w 296 295 -277 1
w 296 -295 277 1
w 296 -295 -277 0
w 297 296 278 1
w 297 296 -278 1
w 297 -296 278 0
w 297 -296 -278 0
w 298 297 279 0.776554
w 298 297 -279 0.904478
w 298 -297 279 0.725542
w 298 -297 -279 0.257965
w 299 298 280 1
w 299 298 -280 0
w 299 -298 280 0
w 299 -298 -280 0
w 300 299 281 1
w 300 299 -281 0
w 300 -299 281 1
w 300 -299 -281 0
w 301 300 282 1
w 301 300 -282 0
w 301 -300 282 0
w 301 -300 -282 0
w 302 301 283 0
w 302 301 -283 0
w 302 -301 283 1
w 302 -301 -283 1
w 303 302 284 1
w 303 302 -284 0
w 303 -302 284 0
w 303 -302 -284 1
w 304 303 285 1
w 304 303 -285 0
w 304 -303 285 1
w 304 -303 -285 0
w 305 286 0.624305
w 305 -286 0.524914
w 306 305 287 0.0617503
w 306 305 -287 0.0493225
w 306 -305 287 0.657465
w 306 -305 -287 0.332297
w 307 306 288 0
w 307 306 -288 1
w 307 -306 288 1
w 307 -306 -288 0
w 308 307 289 1
w 308 307 -289 0
w 308 -307 289 0
w 308 -307 -289 1
w 309 308 290 1
w 309 308 -290 0
w 309 -308 290 0
w 309 -308 -290 0
w 310 309 291 0
w 310 309 -291 0
w 310 -309 291 1
w 310 -309 -291 1
w 311 310 292 0
w 311 310 -292 1
w 311 -310 292 1
w 311 -310 -292 1
w 312 311 293 1
w 312 311 -293 0
w 312 -311 293 0
w 312 -311 -293 0
w 313 312 294 0
w 313 312 -294 1
w 313 -312 294 0
w 313 -312 -294 1
w 314 313 295 1
w 314 313 -295 0
w 314 -313 295 1
w 314 -313 -295 1
w 315 314 296 0
w 315 314 -296 1
w 315 -314 296 0
w 315 -314 -296 0
w 316 315 297 0.0081171
w 316 315 -297 0.826911
w 316 -315 297 0.779041
w 316 -315 -297 0.960715
w 317 316 298 1
w 317 316 -298 0
w 317 -316 298 1
w 317 -316 -298 1
w 318 317 299 0
w 318 317 -299 1
w 318 -317 299 0
w 318 -317 -299 0
w 319 318 300 0
w 319 318 -300 0
w 319 -318 300 1
w 319 -318 -300 1
w 320 319 301 0.36585
w 320 319 -301 0.806146
w 320 -319 301 0.741964
w 320 -319 -301 0.0996446
w 321 320 302 0
w 321 320 -302 1
w 321 -320 302 0
w 321 -320 -302 0
w 322 321 303 1
w 322 321 -303 1
w 322 -321 303 0
w 322 -321 -303 1
w 323 322 304 0
w 323 322 -304 1
w 323 -322 304 0
w 323 -322 -304 1
w 324 305 0.675098
w 324 -305 0.413725
w 325 324 306 0
w 325 324 -306 0
w 325 -324 306 1
w 325 -324 -306 0
w 326 325 307 1
w 326 325 -307 1
w 326 -325 307 1
w 326 -325 -307 0
w 327 326 308 1
w 327 326 -308 0
w 327 -326 308 0
w 327 -326 -308 0
w 328 327 309 1
w 328 327 -309 1
w 328 -327 309 1
w 328 -327 -309 0
w 329 328 310 0
w 329 328 -310 1
w 329 -328 310 1
w 329 -328 -310 0
w 330 329 311 0.15993
w 330 329 -311 0.0796489
w 330 -329 311 0.594495
w 330 -329 -311 0.573656
w 331 330 312 0
w 331 330 -312 0
w 331 -330 312 1
w 331 -330 -312 1
w 332 331 313 0
w 332 331 -313 0
w 332 -331 313 0
w 332 -331 -313 1
w 333 332 314 0
w 333 332 -314 0
w 333 -332 314 1
w 333 -332 -314 0
w 334 333 315 0
w 334 333 -315 1
w 334 -333 315 0
w 334 -333 -315 0
w 335 334 316 0
w 335 334 -316 1
w 335 -334 316 0
w 335 -334 -316 0
w 336 335 317 1
w 336 335 -317 0
w 336 -335 317 0
w 336 -335 -317 1
w 337 336 318 1
w 337 336 -318 1
w 337 -336 318 0
w 337 -336 -318 0
w 338 337 319 0
w 338 337 -319 0
w 338 -337 319 1
w 338 -337 -319 0
w 339 338 320 1
w 339 338 -320 1
w 339 -338 320 0
w 339 -338 -320 0
w 340 339 321 0
w 340 339 -321 0
w 340 -339 321 1
w 340 -339 -321 0
w 341 340 322 0.926287
w 341 340 -322 0.110526
w 341 -340 322 0.939753
w 341 -340 -322 0.0591878
w 342 341 323 0.990484
w 342 341 -323 0.352019
w 342 -341 323 0.909175
w 342 -341 -323 0.635709
w 343 324 1
w 343 -324 0
w 344 343 325 0
w 344 343 -325 1
w 344 -343 325 1
w 344 -343 -325 0
w 345 344 326 0.0453743
w 345 344 -326 0.520397
w 345 -344 326 0.37035
w 345 -344 -326 0.0528933
w 346 345 327 0.76679
w 346 345 -327 0.392654
w 346 -345 327 0.935095
w 346 -345 -327 0.959721
w 347 346 328 0
w 347 346 -328 0
w 347 -346 328 1
w 347 -346 -328 0
w 348 347 329 0
w 348 347 -329 0
w 348 -347 329 0
w 348 -347 -329 1
w 349 348 330 0.850005
w 349 348 -330 0.765307
w 349 -348 330 0.52843
w 349 -348 -330 0.0685115
w 350 349 331 0
w 350 349 -331 0
w 350 -349 331 1
w 350 -349 -331 1
w 351 350 332 0.299238
w 351 350 -332 0.653954
w 351 -350 332 0.364811
w 351 -350 -332 0.669588
w 352 351 333 1
w 352 351 -333 1
w 352 -351 333 0
w 352 -351 -333 1
w 353 352 334 1
w 353 352 -334 0
w 353 -352 334 1
w 353 -352 -334 1
w 354 353 335 1
w 354 353 -335 1
w 354 -353 335 1
w 354 -353 -335 0
w 355 354 336 1
w 355 354 -336 1
w 355 -354 336 0
w 355 -354 -336 1
w 356 355 337 0.250836
w 356 355 -337 0.933897
w 356 -355 337 0.268353
w 356 -355 -337 0.859416
w 357 356 338 0.567591
w 357 356 -338 0.51337
w 357 -356 338 0.143124
w 357 -356 -338 0.237179
w 358 357 339 1
w 358 357 -339 0
w 358 -357 339 0
w 358 -357 -339 0
w 359 358 340 0
w 359 358 -340 1
w 359 -358 340 1
w 359 -358 -340 1
w 360 359 341 1
w 360 359 -341 0
w 360 -359 341 0
w 360 -359 -341 0
w 361 360 342 1
w 361 360 -342 1
w 361 -360 342 0
w 361 -360 -342 1